numOfMachines = 4;
numOfRobots = 2;
numOfJobs = 6;
maxOperations = 4;
operationsCount = [3,3,3,3,4,4];

operation = [
[<0,0,0>,<2,24,0>,<3,42,0>,<4,22,1>],
[<0,0,0>,<2,24,0>,<3,42,0>,<4,22,0>],
[<0,0,0>,<2,24,0>,<3,42,0>,<4,22,0>],
[<0,0,0>,<2,24,0>,<3,42,0>,<4,22,0>],
[<0,0,0>,<1,20,0>,<2,28,0>,<3,36,0>,<4,18,1>],
[<0,0,0>,<1,20,0>,<2,28,0>,<3,36,0>,<4,18,1>]
];